examples/Knap/data/easy/input55_3.txt
ITEM 98 108
ITEM 11 21
ITEM 45 55
ITEM 54 64
ITEM 41 51
ITEM 76 86
ITEM 70 80
ITEM 8 18
ITEM 60 70
ITEM 43 53
ITEM 74 84
ITEM 58 68
ITEM 3 13
ITEM 43 53
ITEM 72 82
ITEM 27 37
ITEM 16 26
ITEM 25 35
ITEM 4 14
ITEM 31 41
ITEM 80 90
ITEM 80 90
ITEM 85 95
ITEM 19 29
ITEM 90 100
ITEM 62 72
ITEM 93 103
ITEM 11 21
ITEM 45 55
ITEM 89 99
ITEM 57 67
ITEM 43 53
ITEM 99 109
ITEM 3 13
ITEM 97 107
ITEM 40 50
ITEM 79 89
ITEM 68 78
ITEM 47 57
ITEM 39 49
ITEM 12 22
ITEM 22 32
ITEM 96 106
ITEM 14 24
ITEM 64 74
ITEM 68 78
ITEM 40 50
ITEM 79 89
ITEM 93 103
ITEM 44 54
ITEM 10 20
ITEM 73 83
ITEM 24 34
ITEM 95 105
ITEM 92 102
CAPACITY 873
